This is Ipopt version 3.10.1, running with linear solver mumps.

Number of nonzeros in equality constraint Jacobian...:      236
Number of nonzeros in inequality constraint Jacobian.:        0
Number of nonzeros in Lagrangian Hessian.............:     5892

Total number of variables............................:      120
                     variables with only lower bounds:        0
                variables with lower and upper bounds:      120
                     variables with only upper bounds:        0
Total number of equality constraints.................:       59
Total number of inequality constraints...............:        0
        inequality constraints with only lower bounds:        0
   inequality constraints with lower and upper bounds:        0
        inequality constraints with only upper bounds:        0

iter    objective    inf_pr   inf_du lg(mu)  ||d||  lg(rg) alpha_du alpha_pr  ls
   0 -3.9205174e-03 1.00e-02 1.99e-03  -1.0 0.00e+00    -  0.00e+00 0.00e+00   0
   1 -4.1730790e-03 3.97e-10 4.69e-03  -1.7 3.10e-02    -  9.64e-01 1.00e+00f  1
   2 -4.0141422e-03 2.44e-10 1.87e-05  -2.5 2.68e-02    -  1.00e+00 1.00e+00f  1
   3 -5.5537152e-03 9.86e-12 9.54e-04  -3.8 5.74e-02    -  9.17e-01 1.00e+00f  1
   4 -5.6659004e-03 4.22e-13 2.07e-03  -5.7 2.07e-03   0.0 1.00e+00 1.00e+00f  1
   5 -6.0482502e-03 1.61e-13 2.23e-03  -5.7 6.62e-03  -0.5 1.00e+00 1.00e+00f  1
   6 -7.8142222e-03 6.61e-13 3.13e-03  -5.7 2.48e-02  -1.0 1.00e+00 1.00e+00f  1
   7 -1.1181315e-02 1.79e-12 5.15e-03  -5.7 1.08e+00  -1.4 3.79e-01 2.92e-02f  1
   8 -1.2648702e-02 2.17e-12 7.67e-03  -5.7 8.28e-02  -1.0 1.00e+00 1.35e-01f  1
   9 -1.6179001e-02 1.81e-12 6.76e-03  -5.7 2.30e-02  -0.6 1.00e+00 1.00e+00f  1
iter    objective    inf_pr   inf_du lg(mu)  ||d||  lg(rg) alpha_du alpha_pr  ls
  10 -1.8790808e-02 2.73e-12 4.35e-02  -5.7 4.07e-01  -1.1 1.00e+00 3.38e-02f  1
  11 -2.1589850e-02 3.00e-12 8.84e-03  -5.7 4.44e-02  -0.6 1.00e+00 2.91e-01f  1
  12 -2.4539494e-02 2.03e-12 9.09e-03  -5.7 1.45e-02  -0.2 1.00e+00 8.22e-01f  1
  13 -2.7545924e-02 2.96e-12 1.64e-02  -5.7 8.26e-02  -0.7 1.00e+00 1.39e-01f  1
  14 -3.0500609e-02 2.93e-12 1.16e-02  -5.7 2.28e-02  -0.3 1.00e+00 4.52e-01f  1
  15 -3.9703952e-02 5.78e-12 3.63e-02  -5.7 1.71e-01  -0.7 1.00e+00 1.59e-01f  1
  16 -4.0322731e-02 5.84e-12 2.20e-02  -5.7 4.54e-02  -0.3 1.00e+00 3.84e-02f  1
  17 -4.7820738e-02 8.46e-12 1.57e-01  -5.7 8.51e-01  -0.8 6.66e-01 2.31e-02f  1
  18 -5.4628554e-02 8.46e-12 2.17e-02  -5.7 5.69e-02  -0.4 1.00e+00 2.79e-01f  1
  19 -5.8891177e-02 6.00e-12 2.22e-02  -5.7 1.89e-02   0.1 1.00e+00 5.20e-01f  1
iter    objective    inf_pr   inf_du lg(mu)  ||d||  lg(rg) alpha_du alpha_pr  ls
  20 -6.5328698e-02 7.39e-12 3.20e-02  -5.7 8.81e-02  -0.4 1.00e+00 1.63e-01f  1
  21 -6.9127010e-02 6.35e-12 2.40e-02  -5.7 2.93e-02   0.0 1.00e+00 3.14e-01f  1
  22 -7.3230871e-02 7.45e-12 4.92e-02  -5.7 1.38e-01  -0.5 1.00e+00 7.16e-02f  1
  23 -7.8699514e-02 7.38e-12 2.82e-02  -5.7 3.52e-02  -0.0 1.00e+00 3.92e-01f  1
  24 -8.2198740e-02 8.42e-12 7.23e-02  -5.7 1.81e-01  -0.5 1.00e+00 4.73e-02f  1
  25 -8.8952752e-02 8.03e-12 3.18e-02  -5.7 4.42e-02  -0.1 1.00e+00 3.83e-01f  1
  26 -9.6212415e-02 9.85e-12 8.89e-02  -5.7 2.82e-01  -0.6 1.00e+00 6.45e-02f  1
  27 -1.0166301e-01 9.08e-12 4.30e-02  -5.7 5.97e-02  -0.1 1.00e+00 2.44e-01f  1
  28 -1.0806419e-01 1.08e-11 8.02e-02  -5.7 2.82e-01  -0.6 5.48e-01 6.00e-02f  1
  29 -1.1230424e-01 9.31e-12 4.45e-02  -5.7 4.90e-02  -0.2 1.00e+00 2.81e-01f  1
iter    objective    inf_pr   inf_du lg(mu)  ||d||  lg(rg) alpha_du alpha_pr  ls
  30 -1.1935975e-01 1.12e-11 4.66e-02  -5.7 3.09e-01  -0.7 2.08e-01 8.73e-02f  1
  31 -1.2282564e-01 1.05e-11 3.52e-02  -5.7 6.42e-02  -0.2 1.00e+00 1.86e-01f  1
  32 -1.3609701e-01 1.38e-11 7.74e-02  -5.7 3.97e-01  -0.7 6.32e-01 1.11e-01f  1
  33 -1.3758400e-01 1.36e-11 6.10e-02  -5.7 6.15e-02  -0.3 1.00e+00 6.22e-02f  1
  34 -1.4191846e-01 1.45e-11 6.03e-02  -5.7 2.69e-01  -0.8 2.09e-01 5.29e-02f  1
  35 -1.4606984e-01 1.24e-11 3.78e-02  -5.7 5.16e-02  -0.3 5.53e-01 2.96e-01f  1
  36 -1.5509991e-01 1.41e-11 4.02e-02  -5.7 4.36e-01  -0.8 1.87e-01 9.77e-02f  1
  37 -1.6563181e-01 1.33e-11 2.72e-02  -5.7 6.30e-02  -0.4 1.00e+00 6.57e-01f  1
  38 -1.6701748e-01 1.41e-11 4.84e-02  -5.7 1.67e+00  -0.9 5.31e-02 6.16e-03f  1
  39 -1.7526167e-01 1.13e-11 3.33e-02  -5.7 6.08e-02  -0.4 1.00e+00 5.79e-01f  1
iter    objective    inf_pr   inf_du lg(mu)  ||d||  lg(rg) alpha_du alpha_pr  ls
  40 -1.8037442e-01 5.88e-12 2.18e-02  -5.7 2.29e-02  -0.0 1.00e+00 8.83e-01f  1
  41 -1.8314000e-01 6.23e-12 3.80e-02  -5.7 7.22e-02  -0.5 1.00e+00 1.60e-01f  1
  42 -1.8959384e-01 4.34e-12 2.03e-02  -5.7 2.36e-02  -0.1 1.00e+00 1.00e+00f  1
  43 -1.9327312e-01 4.31e-12 4.73e-02  -5.7 9.82e-02  -0.5 1.00e+00 1.45e-01f  1
  44 -1.9393800e-01 4.21e-12 2.23e-02  -5.7 2.80e-02  -0.1 1.00e+00 8.44e-02f  1
  45 -2.0549504e-01 8.87e-12 2.17e-02  -5.7 9.52e-02  -0.6 6.77e-01 4.89e-01f  1
  46 -2.0707706e-01 9.15e-12 3.59e-02  -5.7 3.62e-02  -0.2 1.00e+00 1.85e-01f  1
  47 -2.1339373e-01 1.19e-11 2.91e-02  -5.7 1.47e-01  -0.6 2.33e-01 1.79e-01f  1
  48 -2.1402954e-01 1.12e-11 9.62e-02  -5.7 3.38e-02  -0.2 1.00e+00 1.15e-01f  1
  49 -2.1544404e-01 1.12e-11 8.57e-02  -5.7 7.34e-02  -0.7 3.80e-01 1.06e-01f  1
iter    objective    inf_pr   inf_du lg(mu)  ||d||  lg(rg) alpha_du alpha_pr  ls
  50 -2.1897243e-01 1.25e-11 2.09e-02  -5.7 2.61e-02  -0.3 1.00e+00 7.13e-01f  1
  51 -2.2561094e-01 1.13e-11 1.61e-02  -5.7 9.50e-02  -0.8 3.68e-01 3.76e-01f  1
  52 -2.2864795e-01 8.32e-12 2.02e-02  -5.7 3.25e-02  -0.3 1.00e+00 4.70e-01f  1
  53 -2.3531308e-01 8.45e-12 2.75e-02  -5.7 8.41e-02  -0.8 2.86e-01 4.87e-01f  1
  54 -2.5802412e-01 1.57e-11 6.01e-02  -5.7 1.09e+00  -1.3 2.36e-01 8.74e-02f  1
  55 -2.6598567e-01 1.86e-11 6.05e-02  -5.7 1.49e-01  -0.9 5.25e-01 1.66e-01f  1
  56 -2.7037953e-01 1.77e-11 3.07e-02  -5.7 4.55e-02  -0.4 1.00e+00 2.71e-01f  1
  57 -3.4564853e-01 3.56e-11 6.81e-02  -5.7 2.33e-01  -0.9 3.95e-01 6.04e-01f  1
  58 -3.7684137e-01 2.57e-11 4.95e-02  -5.7 1.23e-01  -0.5 4.53e-01 3.04e-01f  1
  59 -3.7847624e-01 2.59e-11 1.29e-01  -5.7 3.27e-01  -1.0 1.56e-01 2.07e-02f  1
iter    objective    inf_pr   inf_du lg(mu)  ||d||  lg(rg) alpha_du alpha_pr  ls
  60 -3.7908240e-01 2.57e-11 1.26e-01  -5.7 9.61e-02  -0.5 2.43e-01 1.52e-02f  1
  61 -4.0432910e-01 3.47e-11 2.15e-01  -5.7 4.11e-01  -1.0 1.00e+00 2.62e-01f  1
  62 -4.1163238e-01 3.57e-11 1.36e-01  -5.7 1.22e-01  -0.6 6.04e-01 2.20e-01f  1
  63 -4.2965222e-01 3.94e-11 1.01e-01  -5.7 2.83e-01  -1.1 1.00e+00 4.74e-01f  1
  64 -4.3670074e-01 1.74e-11 1.47e-02  -5.7 5.91e-02  -0.6 1.00e+00 1.00e+00f  1
  65 -4.4101794e-01 2.46e-11 1.68e-02  -5.7 2.66e-02  -0.2 1.00e+00 1.00e+00f  1
  66 -4.4214613e-01 2.22e-11 9.24e-02  -5.7 9.14e-02  -0.7 1.00e+00 8.03e-02f  1
  67 -5.0781517e-01 3.43e-11 2.38e-01  -5.7 1.61e+02  -1.2 1.94e-04 1.91e-03f  1
  68 -5.1360936e-01 2.51e-11 1.77e-01  -5.7 2.35e-01  -0.7 1.78e-01 2.91e-01f  1
  69 -5.1374271e-01 2.51e-11 1.18e-01  -5.7 9.63e-02  -0.3 1.00e+00 3.32e-03f  1
iter    objective    inf_pr   inf_du lg(mu)  ||d||  lg(rg) alpha_du alpha_pr  ls
  70 -5.1950425e-01 2.59e-11 2.24e-01  -5.7 5.29e-01  -0.8 3.69e-01 2.74e-02f  1
  71 -5.2104822e-01 2.57e-11 9.49e-02  -5.7 1.34e-01  -1.3 9.25e-01 4.14e-02f  1
  72 -5.2216305e-01 2.83e-11 1.86e-01  -5.7 6.97e+00  -1.7 4.32e-02 9.66e-03f  1
  73 -5.2881799e-01 2.30e-11 3.13e-02  -5.7 5.66e-02  -1.3 1.00e+00 5.62e-01f  1
  74 -5.2954986e-01 2.20e-11 2.83e-02  -5.7 3.06e-02  -0.9 1.13e-01 8.87e-02f  1
  75 -6.2937314e-01 7.66e-11 1.70e-01  -5.7 6.72e-01  -1.4 2.55e-01 3.79e-01f  1
  76 -6.4708712e-01 7.95e-11 1.64e-01  -5.7 1.22e-01  -0.0 1.33e-01 1.22e-01f  1
  77 -6.8214829e-01 6.91e-11 1.04e-01  -5.7 3.21e-02   0.4 1.00e+00 7.44e-01f  1
  78 -9.1786540e-01 1.46e-10 2.28e-01  -5.7 4.06e-01  -0.1 2.74e-01 2.50e-01f  1
  79 -9.9589662e-01 1.67e-10 2.53e-01  -5.7 1.97e-01   0.3 8.56e-02 1.12e-01f  1
iter    objective    inf_pr   inf_du lg(mu)  ||d||  lg(rg) alpha_du alpha_pr  ls
  80 -9.9617220e-01 1.67e-10 3.46e-01  -5.7 5.06e-02   0.8 3.54e-01 2.56e-03f  1
  81 -9.9647916e-01 1.67e-10 4.58e-01  -5.7 7.38e-01    -  1.85e-02 2.88e-04f  1
  82 -9.9949789e-01 1.61e-10 3.51e-01  -5.7 1.83e-02    -  1.43e-02 5.74e-02f  1
  83 -9.9970564e-01 1.54e-10 3.28e-01  -5.7 2.30e-03    -  4.78e-02 5.38e-02f  1
  84 -9.9972841e-01 1.41e-10 5.50e-01  -5.7 4.99e-04    -  5.39e-01 1.11e-01f  1
  85 -9.9973145e-01 1.37e-10 5.87e-01  -5.7 2.42e-04    -  2.57e-01 3.76e-02f  2
  86 -9.9979194e-01 6.23e-11 4.74e-09  -5.7 5.18e-05    -  1.00e+00 1.00e+00h  1
  87 -1.0000001e+00 3.66e-14 5.20e-07  -8.6 2.13e-05    -  1.00e+00 1.00e+00f  1
  88 -1.0000001e+00 3.71e-11 2.00e-01  -8.6 1.41e-08    -  7.59e-01 1.00e+00f  1
  89 -1.0000001e+00 1.91e-11 2.18e-15  -8.6 7.86e-09    -  1.00e+00 1.00e+00h  1

Number of Iterations....: 89

                                   (scaled)                 (unscaled)
Objective...............:  -1.0000000960484288e+00   -1.0000000960484288e+00
Dual infeasibility......:   2.1772313456246980e-15    2.1772313456246980e-15
Constraint violation....:   1.9142687435191874e-11    1.9142687435191874e-11
Complementarity.........:   4.0856605077917182e-09    4.0856605077917182e-09
Overall NLP error.......:   4.0856605077917182e-09    4.0856605077917182e-09


Number of objective function evaluations             = 91
Number of objective gradient evaluations             = 90
Number of equality constraint evaluations            = 91
Number of inequality constraint evaluations          = 0
Number of equality constraint Jacobian evaluations   = 1
Number of inequality constraint Jacobian evaluations = 0
Number of Lagrangian Hessian evaluations             = 89
Total CPU secs in IPOPT (w/o function evaluations)   =      0.360
Total CPU secs in NLP function evaluations           =      6.120

EXIT: Optimal Solution Found.
